benchmark/exclude/ann_fermentation_tanh.osil
<?xml version="1.0" encoding="UTF-8"?><osil xmlns="os.optimizationservices.org" xmlns:xsi="http://www.w3.org/2001/XMLSchema-instance" xsi:schemaLocation="os.optimizationservices.org http://www.optimizationservices.org/schemas/2.0/OSiL.xsd"><instanceHeader><name>ann_fermentation_tanh</name></instanceHeader><instanceData><variables numberOfVariables="12"><var name="x2" lb="100" ub="1.8e2"/><var name="x3" lb="1" ub="3"/><var name="x4" lb="10" ub="60"/><var name="x5" lb="-INF"/><var name="x6" lb="-INF"/><var name="x7" lb="-INF"/><var name="x8" lb="-INF"/><var name="x9" lb="-INF"/><var name="x10" lb="-INF"/><var name="x11" lb="-INF"/><var name="x12" lb="-INF"/><var name="x13" lb="-INF"/></variables><objectives><obj maxOrMin="min" name="defObj_objvar" numberOfObjCoef="0"/></objectives><constraints numberOfConstraints="9"><con name="e2" lb="0" ub="0"/><con name="e3" lb="0" ub="0"/><con name="e4" lb="2.499597315649e-3" ub="2.499597315649e-3"/><con name="e5" lb="92.74" ub="92.74"/><con name="e6" lb="-3.5" ub="-3.5"/><con name="e7" lb="-2" ub="-2"/><con name="e8" lb="-1.4" ub="-1.4"/><con name="e9" lb="101.235018055261" ub="101.235018055261"/><con name="e10" lb=".18771256886977" ub=".18771256886977"/></constraints><linearConstraintCoefficients numberOfValues="21"><start><el mult="3" incr="1">0</el><el mult="5" incr="2">5</el><el>17</el><el>21</el></start><colIdx><el>6</el><el>7</el><el>6</el><el>7</el><el>9</el><el>8</el><el>9</el><el>0</el><el>3</el><el>1</el><el>4</el><el>2</el><el>5</el><el mult="3" incr="1">3</el><el>10</el><el mult="3" incr="1">3</el><el>11</el></colIdx><value><el mult="2">1</el><el>-9.49474332688833e-2</el><el>.968637250639063</el><el mult="2">1</el><el>-86.324</el><el>-2.5e-2</el><el>1</el><el>-1</el><el>1</el><el>-4e-2</el><el>1</el><el>-24.4380718077469</el><el>-22.0304402344789</el><el>147.921509281049</el><el>1</el><el>1.48567642304727</el><el>-5.32843142008436e-2</el><el>.910590580134437</el><el>1</el></value></linearConstraintCoefficients><nonlinearExpressions numberOfNonlinearExpressions="3"><nl idx="-1"><negate><divide><variable idx="8" coef="91.91176470588235"/><variable idx="0"/></divide></negate></nl><nl idx="0"><negate><tanh><variable idx="10"/></tanh></negate></nl><nl idx="1"><negate><tanh><variable idx="11"/></tanh></negate></nl></nonlinearExpressions></instanceData></osil>